p edge 20 60
e 1 4
e 1 12
e 1 17
e 2 8
e 2 9
e 2 15
e 3 7
e 3 10
e 3 11
e 4 3
e 4 8
e 4 18
e 5 10
e 5 10
e 5 16
e 6 3
e 6 3
e 6 16
e 7 10
e 7 12
e 7 19
e 8 14
e 8 17
e 8 19
e 9 3
e 9 12
e 9 20
e 10 2
e 10 14
e 10 17
e 11 5
e 11 5
e 11 20
e 12 8
e 12 18
e 12 19
e 13 5
e 13 6
e 13 16
e 14 2
e 14 7
e 14 11
e 15 1
e 15 3
e 15 12
e 16 1
e 16 14
e 16 17
e 17 3
e 17 11
e 17 14
e 18 2
e 18 11
e 18 17
e 19 6
e 19 6
e 19 9
e 20 5
e 20 8
e 20 13
